20
96
10
0 1
0 2
0 5
0 6
0 7
0 9
0 12
0 15
0 16
0 17
0 18
0 19
1 6
1 11
1 12
1 13
1 14
1 15
2 3
2 8
2 14
2 17
2 18
3 4
3 5
3 6
3 7
3 8
3 9
3 10
3 12
3 15
3 19
4 6
4 8
4 9
4 11
4 15
4 16
4 17
4 18
4 19
5 6
5 8
5 9
5 10
5 11
5 12
5 14
5 16
5 18
5 19
6 7
6 10
6 13
6 15
6 18
7 8
7 10
7 11
7 12
7 13
7 14
7 15
7 17
7 18
8 10
8 12
8 15
8 17
9 10
9 11
9 14
9 15
9 18
9 19
10 16
10 17
10 19
11 12
11 13
11 14
11 16
11 19
12 14
12 15
13 19
14 15
14 16
14 17
14 19
15 16
15 19
16 19
17 19
18 19
2 10
9 12
1 19
3 7
6 15
0 4
8 11
13 16
14 17
5 18
